; PUSH cw_3 SLOAD PUSH cw_2 SWAP1 DUP2 SWAP1 => PUSH cw_2 DUP1 PUSH cw_3 SLOAD
(set-option :produce-proofs true)
; 
(set-info :status unknown)
(declare-fun storage_t ((_ BitVec 256) (_ BitVec 256) (_ BitVec 256) Int (_ BitVec 256)) (_ BitVec 256))
(declare-fun w_2 () (_ BitVec 256))
(declare-fun w_3 () (_ BitVec 256))
(declare-fun storage_s ((_ BitVec 256) (_ BitVec 256) (_ BitVec 256) Int (_ BitVec 256)) (_ BitVec 256))
(declare-fun exc_halt_t (Int) Bool)
(declare-fun exc_halt_s (Int) Bool)
(declare-fun stack_t ((_ BitVec 256) (_ BitVec 256) (_ BitVec 256) Int (_ BitVec 6)) (_ BitVec 256))
(declare-fun stack_s ((_ BitVec 256) (_ BitVec 256) (_ BitVec 256) Int (_ BitVec 6)) (_ BitVec 256))
(declare-fun sc_t (Int) (_ BitVec 6))
(declare-fun sc_s (Int) (_ BitVec 6))
(declare-fun used_gas_t ((_ BitVec 256) (_ BitVec 256) (_ BitVec 256) Int) Int)
(declare-fun used_gas_s ((_ BitVec 256) (_ BitVec 256) (_ BitVec 256) Int) Int)
(assert
 (exists ((x_SLOAD_0 (_ BitVec 256)) )(let (($x9032 (forall ((w (_ BitVec 256)) )(let ((?x8497 (storage_t x_SLOAD_0 w_3 w_2 4 w)))
 (let ((?x6338 (storage_s x_SLOAD_0 w_3 w_2 6 w)))
 (= ?x6338 ?x8497))))
 ))
 (let (($x7854 (exc_halt_t 4)))
 (let (($x772 (exc_halt_s 6)))
 (let (($x4404 (= $x772 $x7854)))
 (let (($x5850 (forall ((n (_ BitVec 6)) )(let ((?x10151 (stack_t x_SLOAD_0 w_3 w_2 4 n)))
 (let ((?x177 (stack_s x_SLOAD_0 w_3 w_2 6 n)))
 (let (($x11579 (= ?x177 ?x10151)))
 (let ((?x4818 (sc_t 4)))
 (let (($x7279 (bvsle ?x4818 n)))
 (or $x7279 $x11579)))))))
 ))
 (let ((?x4818 (sc_t 4)))
 (let ((?x926 (sc_s 6)))
 (let (($x7899 (= ?x926 ?x4818)))
 (let ((?x8346 (used_gas_t x_SLOAD_0 w_3 w_2 0)))
 (let ((?x188 (used_gas_s x_SLOAD_0 w_3 w_2 0)))
 (let (($x9497 (= ?x188 ?x8346)))
 (let (($x8138 (forall ((w (_ BitVec 256)) )(let ((?x5356 (storage_t x_SLOAD_0 w_3 w_2 0 w)))
 (let ((?x11209 (storage_s x_SLOAD_0 w_3 w_2 0 w)))
 (= ?x11209 ?x5356))))
 ))
 (let (($x56 (exc_halt_t 0)))
 (let (($x57 (exc_halt_s 0)))
 (let (($x58 (= $x57 $x56)))
 (let (($x10305 (forall ((n (_ BitVec 6)) )(let ((?x63 (sc_t 0)))
 (let (($x8381 (bvsle ?x63 n)))
 (let ((?x10623 (stack_t x_SLOAD_0 w_3 w_2 0 n)))
 (let ((?x7425 (stack_s x_SLOAD_0 w_3 w_2 0 n)))
 (let (($x2686 (= ?x7425 ?x10623)))
 (or $x2686 $x8381)))))))
 ))
 (let ((?x63 (sc_t 0)))
 (let ((?x72 (sc_s 0)))
 (let (($x73 (= ?x72 ?x63)))
 (let (($x2293 (= $x7854 (or (exc_halt_t 3) (not (bvsle (_ bv0 6) (bvadd (_ bv63 6) (sc_t 3))))))))
 (let (($x4436 (forall ((w (_ BitVec 256)) )(let ((?x10192 (storage_t x_SLOAD_0 w_3 w_2 3 w)))
 (let ((?x8497 (storage_t x_SLOAD_0 w_3 w_2 4 w)))
 (= ?x8497 ?x10192))))
 ))
 (let (($x3303 (forall ((n (_ BitVec 6)) )(let ((?x1279 (stack_t x_SLOAD_0 w_3 w_2 3 n)))
 (let ((?x10151 (stack_t x_SLOAD_0 w_3 w_2 4 n)))
 (or (= ?x10151 ?x1279) (bvsle (bvadd (_ bv63 6) (sc_t 3)) n)))))
 ))
 (let (($x4453 (= (used_gas_t x_SLOAD_0 w_3 w_2 4) (+ 200 (used_gas_t x_SLOAD_0 w_3 w_2 3)))))
 (let ((?x1731 (storage_t x_SLOAD_0 w_3 w_2 3 (stack_t x_SLOAD_0 w_3 w_2 3 (bvadd (_ bv63 6) (sc_t 3))))))
 (let (($x7890 (exc_halt_t 2)))
 (let (($x10465 (or $x7890 (not (= ((_ extract 6 6) (bvadd (_ bv1 7) (concat (_ bv0 1) (sc_t 2)))) (_ bv0 1))))))
 (let (($x3614 (exc_halt_t 3)))
 (let (($x11833 (forall ((w (_ BitVec 256)) )(let ((?x8598 (storage_t x_SLOAD_0 w_3 w_2 2 w)))
 (let ((?x10192 (storage_t x_SLOAD_0 w_3 w_2 3 w)))
 (= ?x10192 ?x8598))))
 ))
 (let (($x11258 (forall ((n (_ BitVec 6)) )(let ((?x2714 (sc_t 2)))
 (let (($x4079 (bvsle ?x2714 n)))
 (let ((?x7218 (stack_t x_SLOAD_0 w_3 w_2 2 n)))
 (let ((?x1279 (stack_t x_SLOAD_0 w_3 w_2 3 n)))
 (or (= ?x1279 ?x7218) $x4079))))))
 ))
 (let ((?x8694 (used_gas_t x_SLOAD_0 w_3 w_2 3)))
 (let (($x8377 (exc_halt_t 1)))
 (let (($x1144 (not (= ((_ extract 6 6) (bvadd (_ bv1 7) (concat (_ bv0 1) (sc_t 1)))) (_ bv0 1)))))
 (let (($x4454 (forall ((w (_ BitVec 256)) )(let ((?x7003 (storage_t x_SLOAD_0 w_3 w_2 1 w)))
 (let ((?x8598 (storage_t x_SLOAD_0 w_3 w_2 2 w)))
 (= ?x8598 ?x7003))))
 ))
 (let (($x4224 (forall ((n (_ BitVec 6)) )(let ((?x10077 (stack_t x_SLOAD_0 w_3 w_2 1 n)))
 (let ((?x7218 (stack_t x_SLOAD_0 w_3 w_2 2 n)))
 (or (= ?x7218 ?x10077) (bvsle (bvadd (_ bv63 6) (sc_t 1)) n)))))
 ))
 (let ((?x2714 (sc_t 2)))
 (let (($x6935 (= ?x2714 (bvadd (_ bv1 6) (sc_t 1)))))
 (let ((?x1939 (used_gas_t x_SLOAD_0 w_3 w_2 2)))
 (let ((?x7154 (sc_t 1)))
 (let ((?x11691 (bvadd (_ bv63 6) ?x7154)))
 (let ((?x592 (stack_t x_SLOAD_0 w_3 w_2 1 ?x11691)))
 (let (($x9770 (= $x8377 (or $x56 (not (= ((_ extract 6 6) (bvadd (_ bv1 7) (concat (_ bv0 1) ?x63))) (_ bv0 1)))))))
 (let (($x3355 (forall ((w (_ BitVec 256)) )(let ((?x5356 (storage_t x_SLOAD_0 w_3 w_2 0 w)))
 (let ((?x7003 (storage_t x_SLOAD_0 w_3 w_2 1 w)))
 (= ?x7003 ?x5356))))
 ))
 (let (($x8994 (forall ((n (_ BitVec 6)) )(let ((?x63 (sc_t 0)))
 (let (($x8381 (bvsle ?x63 n)))
 (let ((?x10623 (stack_t x_SLOAD_0 w_3 w_2 0 n)))
 (let ((?x10077 (stack_t x_SLOAD_0 w_3 w_2 1 n)))
 (or (= ?x10077 ?x10623) $x8381))))))
 ))
 (let (($x262 (= ?x7154 (bvadd (_ bv1 6) ?x63))))
 (let (($x11061 (= $x772 (or (exc_halt_s 5) (not (bvsle (_ bv0 6) (bvadd (_ bv62 6) (sc_s 5))))))))
 (let (($x4320 (forall ((w (_ BitVec 256)) )(let ((?x854 (storage_s x_SLOAD_0 w_3 w_2 5 w)))
 (let ((?x6338 (storage_s x_SLOAD_0 w_3 w_2 6 w)))
 (= ?x6338 ?x854))))
 ))
 (let (($x11708 (forall ((n (_ BitVec 6)) )(let ((?x8699 (stack_s x_SLOAD_0 w_3 w_2 5 n)))
 (let ((?x177 (stack_s x_SLOAD_0 w_3 w_2 6 n)))
 (let ((?x4319 (sc_s 5)))
 (let ((?x4775 (bvadd (_ bv62 6) ?x4319)))
 (let (($x1644 (bvsle ?x4775 n)))
 (or $x1644 (= ?x177 ?x8699))))))))
 ))
 (let (($x1288 (= (used_gas_s x_SLOAD_0 w_3 w_2 6) (+ 3 (used_gas_s x_SLOAD_0 w_3 w_2 5)))))
 (let ((?x4319 (sc_s 5)))
 (let ((?x5048 (bvadd (_ bv63 6) ?x4319)))
 (let ((?x8442 (stack_s x_SLOAD_0 w_3 w_2 5 ?x5048)))
 (let (($x4515 (= (stack_s x_SLOAD_0 w_3 w_2 6 (bvadd (_ bv63 6) ?x926)) (stack_s x_SLOAD_0 w_3 w_2 5 (bvadd (_ bv62 6) ?x4319)))))
 (let (($x7172 (exc_halt_s 4)))
 (let (($x1777 (not (= ((_ extract 6 6) (bvadd (_ bv1 7) (concat (_ bv0 1) (sc_s 4)))) (_ bv0 1)))))
 (let (($x11317 (exc_halt_s 5)))
 (let (($x5305 (forall ((w (_ BitVec 256)) )(let ((?x11191 (storage_s x_SLOAD_0 w_3 w_2 4 w)))
 (let ((?x854 (storage_s x_SLOAD_0 w_3 w_2 5 w)))
 (= ?x854 ?x11191))))
 ))
 (let (($x6516 (forall ((n (_ BitVec 6)) )(let ((?x6654 (stack_s x_SLOAD_0 w_3 w_2 4 n)))
 (let ((?x8699 (stack_s x_SLOAD_0 w_3 w_2 5 n)))
 (or (= ?x8699 ?x6654) (bvsle (bvadd (_ bv62 6) (sc_s 4)) n)))))
 ))
 (let (($x10739 (= ?x4319 (bvadd (_ bv1 6) (sc_s 4)))))
 (let ((?x10116 (used_gas_s x_SLOAD_0 w_3 w_2 5)))
 (let ((?x4305 (sc_s 4)))
 (let ((?x5445 (bvadd (_ bv63 6) ?x4305)))
 (let ((?x629 (stack_s x_SLOAD_0 w_3 w_2 4 ?x5445)))
 (let ((?x8739 (bvadd (_ bv62 6) ?x4305)))
 (let ((?x4012 (stack_s x_SLOAD_0 w_3 w_2 4 ?x8739)))
 (let (($x11360 (= $x7172 (or (exc_halt_s 3) (not (bvsle (_ bv0 6) (bvadd (_ bv62 6) (sc_s 3))))))))
 (let (($x9220 (forall ((w (_ BitVec 256)) )(let ((?x3812 (storage_s x_SLOAD_0 w_3 w_2 3 w)))
 (let ((?x11191 (storage_s x_SLOAD_0 w_3 w_2 4 w)))
 (= ?x11191 ?x3812))))
 ))
 (let (($x11329 (forall ((n (_ BitVec 6)) )(let ((?x3010 (stack_s x_SLOAD_0 w_3 w_2 3 n)))
 (let ((?x6654 (stack_s x_SLOAD_0 w_3 w_2 4 n)))
 (let ((?x275 (sc_s 3)))
 (let ((?x11737 (bvadd (_ bv62 6) ?x275)))
 (let (($x9168 (bvsle ?x11737 n)))
 (or $x9168 (= ?x6654 ?x3010))))))))
 ))
 (let ((?x275 (sc_s 3)))
 (let (($x8517 (= ?x4305 ?x275)))
 (let ((?x574 (used_gas_s x_SLOAD_0 w_3 w_2 4)))
 (let (($x5208 (not (= ((_ extract 6 6) (bvadd (_ bv1 7) (concat (_ bv0 1) (sc_s 2)))) (_ bv0 1)))))
 (let (($x247 (exc_halt_s 2)))
 (let (($x292 (exc_halt_s 3)))
 (let (($x7617 (forall ((w (_ BitVec 256)) )(let ((?x856 (storage_s x_SLOAD_0 w_3 w_2 2 w)))
 (let ((?x3812 (storage_s x_SLOAD_0 w_3 w_2 3 w)))
 (= ?x3812 ?x856))))
 ))
 (let (($x1192 (forall ((n (_ BitVec 6)) )(let ((?x628 (stack_s x_SLOAD_0 w_3 w_2 2 n)))
 (let ((?x3010 (stack_s x_SLOAD_0 w_3 w_2 3 n)))
 (or (bvsle (sc_s 2) n) (= ?x3010 ?x628)))))
 ))
 (let (($x5654 (= ?x275 (bvadd (_ bv1 6) (sc_s 2)))))
 (let ((?x11567 (used_gas_s x_SLOAD_0 w_3 w_2 3)))
 (let (($x6528 (= $x247 (or (exc_halt_s 1) (not (bvsle (_ bv0 6) (bvadd (_ bv63 6) (sc_s 1))))))))
 (let (($x11515 (forall ((w (_ BitVec 256)) )(let ((?x6375 (storage_s x_SLOAD_0 w_3 w_2 1 w)))
 (let ((?x856 (storage_s x_SLOAD_0 w_3 w_2 2 w)))
 (= ?x856 ?x6375))))
 ))
 (let (($x1311 (forall ((n (_ BitVec 6)) )(let ((?x6698 (stack_s x_SLOAD_0 w_3 w_2 1 n)))
 (let ((?x628 (stack_s x_SLOAD_0 w_3 w_2 2 n)))
 (or (bvsle (bvadd (_ bv63 6) (sc_s 1)) n) (= ?x628 ?x6698)))))
 ))
 (let ((?x154 (sc_s 1)))
 (let ((?x218 (sc_s 2)))
 (let (($x10326 (= ?x218 ?x154)))
 (let ((?x6092 (used_gas_s x_SLOAD_0 w_3 w_2 2)))
 (let ((?x11845 (storage_s x_SLOAD_0 w_3 w_2 1 (stack_s x_SLOAD_0 w_3 w_2 1 (bvadd (_ bv63 6) ?x154)))))
 (let (($x189 (exc_halt_s 1)))
 (let (($x5243 (= $x189 (or $x57 (not (= ((_ extract 6 6) (bvadd (_ bv1 7) (concat (_ bv0 1) ?x72))) (_ bv0 1)))))))
 (let (($x1438 (forall ((w (_ BitVec 256)) )(let ((?x11209 (storage_s x_SLOAD_0 w_3 w_2 0 w)))
 (let ((?x6375 (storage_s x_SLOAD_0 w_3 w_2 1 w)))
 (= ?x6375 ?x11209))))
 ))
 (let (($x8550 (forall ((n (_ BitVec 6)) )(let ((?x7425 (stack_s x_SLOAD_0 w_3 w_2 0 n)))
 (let ((?x6698 (stack_s x_SLOAD_0 w_3 w_2 1 n)))
 (let ((?x72 (sc_s 0)))
 (let (($x3106 (bvsle ?x72 n)))
 (or $x3106 (= ?x6698 ?x7425)))))))
 ))
 (let (($x8600 (= ?x154 (bvadd (_ bv1 6) ?x72))))
 (let (($x4070 (forall ((w (_ BitVec 256)) )(let ((?x3752 (ite (= w (stack_s x_SLOAD_0 w_3 w_2 1 (bvadd (_ bv63 6) (sc_s 1)))) x_SLOAD_0 (_ bv0 256))))
 (let ((?x11209 (storage_s x_SLOAD_0 w_3 w_2 0 w)))
 (= ?x11209 ?x3752))))
 ))
 (let (($x10816 (= ?x188 0)))
 (let (($x4855 (not $x57)))
 (let (($x1074 (= ?x72 (_ bv0 6))))
 (and $x1074 $x4855 $x10816 $x4070 (= (stack_s x_SLOAD_0 w_3 w_2 1 ?x72) w_3) (= (used_gas_s x_SLOAD_0 w_3 w_2 1) (+ 3 ?x188)) $x8600 $x8550 $x1438 $x5243 (= (stack_s x_SLOAD_0 w_3 w_2 2 (bvadd (_ bv63 6) ?x218)) ?x11845) (= ?x6092 (+ 200 (used_gas_s x_SLOAD_0 w_3 w_2 1))) $x10326 $x1311 $x11515 $x6528 (= (stack_s x_SLOAD_0 w_3 w_2 3 ?x218) w_2) (= ?x11567 (+ 3 ?x6092)) $x5654 $x1192 $x7617 (= $x292 (or $x247 $x5208)) (= ?x629 (stack_s x_SLOAD_0 w_3 w_2 3 (bvadd (_ bv62 6) ?x275))) (= ?x4012 (stack_s x_SLOAD_0 w_3 w_2 3 (bvadd (_ bv63 6) ?x275))) (= ?x574 (+ 3 ?x11567)) $x8517 $x11329 $x9220 $x11360 (= ?x8442 ?x4012) (= (stack_s x_SLOAD_0 w_3 w_2 5 ?x8739) ?x4012) (= (stack_s x_SLOAD_0 w_3 w_2 5 ?x5445) ?x629) (= ?x10116 (+ 3 ?x574)) $x10739 $x6516 $x5305 (= $x11317 (or (not (bvsle (_ bv0 6) ?x8739)) $x1777 $x7172)) $x4515 (= (stack_s x_SLOAD_0 w_3 w_2 6 (bvadd (_ bv62 6) ?x926)) ?x8442) $x1288 (= ?x926 ?x4319) $x11708 $x4320 $x11061 (= (stack_t x_SLOAD_0 w_3 w_2 1 ?x63) w_2) (= (used_gas_t x_SLOAD_0 w_3 w_2 1) (+ 3 ?x8346)) $x262 $x8994 $x3355 $x9770 (= (stack_t x_SLOAD_0 w_3 w_2 2 (bvadd (_ bv63 6) ?x2714)) ?x592) (= (stack_t x_SLOAD_0 w_3 w_2 2 ?x11691) ?x592) (= ?x1939 (+ 3 (used_gas_t x_SLOAD_0 w_3 w_2 1))) $x6935 $x4224 $x4454 (= $x7890 (or $x1144 (not (bvsle (_ bv0 6) ?x11691)) $x8377)) (= (stack_t x_SLOAD_0 w_3 w_2 3 ?x2714) w_3) (= ?x8694 (+ 3 ?x1939)) (= (sc_t 3) (bvadd (_ bv1 6) ?x2714)) $x11258 $x11833 (= $x3614 $x10465) (= (stack_t x_SLOAD_0 w_3 w_2 4 (bvadd (_ bv63 6) ?x4818)) ?x1731) $x4453 (= ?x4818 (sc_t 3)) $x3303 $x4436 $x2293 $x73 $x10305 $x58 $x8138 $x9497 (not (and $x7899 $x5850 $x4404 $x9032))))))))))))))))))))))))))))))))))))))))))))))))))))))))))))))))))))))))))))))))))))))))))))))))))
 )
(check-sat)
(get-proof)
